# Objective value = 34
WA1n 0
WA1p 0
WA2n 1
WA2p 0
WB1n 0
WB1p 0
WB2n 1
WB2p 0
WC1n 1
WC1p 0
WD1n 1
WD1p 0
WE1n 0
WE1p 2
WE2n 0
WE2p 1
WF1n 0
WF1p 3
WF2n 0
WF2p 1
WG1n 6
WG1p 0
WH1n 0
WH1p 9
WH2n 0
WH2p 1
WT1n 0
WT1p 0
WT2n 0
WT2p 1
5 7
a 0
b 0
c 0
d 0
e 0
f 0
g 1
h 1
i 1
j 1
k 0
l 1
m 1
n 0
o 1
